Problem:    cereali
Rows:       4
Columns:    12
Non-zeros:  36
Status:     OPTIMAL
Objective:  z = 1593882.353 (MAXimum)

   No.   Row name   St   Activity     Lower bound   Upper bound    Marginal
------ ------------ -- ------------- ------------- ------------- -------------
     1 max_area[1]  NU           200                         200          2440 
     2 max_area[2]  NU           400                         400       2764.71 
     3 max_acqua    B        2977.65                      400000 
     4 z            B    1.59388e+06                             

   No. Column name  St   Activity     Lower bound   Upper bound    Marginal
------ ------------ -- ------------- ------------- ------------- -------------
     1 x[1,1]       NL             0             0                        -0.8 
     2 x[1,2]       NL             0             0                       -11.2 
     3 x[1,3]       NL             0             0                       -20.8 
     4 x[1,4]       NL             0             0                       -3.04 
     5 x[1,5]       B           4000             0               
     6 x[1,6]       NL             0             0                        -3.6 
     7 x[2,1]       NL             0             0                    -7.29412 
     8 x[2,2]       NL             0             0                         -32 
     9 x[2,3]       NL             0             0                    -38.3529 
    10 x[2,4]       NL             0             0                    -19.2941 
    11 x[2,5]       NL             0             0                    -43.8824 
    12 x[2,6]       B        11764.7             0               

Karush-Kuhn-Tucker optimality conditions:

KKT.PE: max.abs.err = 0.00e+00 on row 0
        max.rel.err = 0.00e+00 on row 0
        High quality

KKT.PB: max.abs.err = 0.00e+00 on row 0
        max.rel.err = 0.00e+00 on row 0
        High quality

KKT.DE: max.abs.err = 1.42e-14 on column 5
        max.rel.err = 5.80e-17 on column 5
        High quality

KKT.DB: max.abs.err = 0.00e+00 on row 0
        max.rel.err = 0.00e+00 on row 0
        High quality

End of output
